Gurobi Optimizer version 9.1.2 build v9.1.2rc0 (linux64)
Thread count: 36 physical cores, 72 logical processors, using up to 32 threads
Optimize a model with 12 rows, 57 columns and 590 nonzeros
Model fingerprint: 0xf32eec78
Model has 47 quadratic constraints
Coefficient statistics:
  Matrix range     [2e-05, 3e+00]
  QMatrix range    [1e+00, 1e+00]
  QLMatrix range   [1e+00, 1e+00]
  Objective range  [8e-03, 7e-01]
  Bounds range     [1e+00, 1e+00]
  RHS range        [1e+00, 1e+00]
Presolve removed 9 rows and 0 columns

Continuous model is non-convex -- solving as a MIP.

Presolve removed 9 rows and 0 columns
Presolve time: 0.00s
Presolved: 189 rows, 57 columns, 443 nonzeros
Presolved model has 47 bilinear constraint(s)
Variable types: 57 continuous, 0 integer (0 binary)

Root relaxation: objective -1.743721e+00, 44 iterations, 0.00 seconds

    Nodes    |    Current Node    |     Objective Bounds      |     Work
 Expl Unexpl |  Obj  Depth IntInf | Incumbent    BestBd   Gap | It/Node Time

     0     0   -1.74372    0   38          -   -1.74372      -     -    0s
H    0     0                       0.6147548   -1.74372   384%     -    0s
     0     0   -1.64739    0    1    0.61475   -1.64739   368%     -    0s
H    0     0                      -1.6450460   -1.64739  0.14%     -    0s
     0     0     cutoff    0        -1.64505   -1.64505  0.00%     -    0s

Cutting planes:
  RLT: 25
  BQP: 3

Explored 1 nodes (76 simplex iterations) in 0.01 seconds
Thread count was 32 (of 72 available processors)

Solution count 2: -1.64505 0.614755 
No other solutions better than -1.64505

Optimal solution found (tolerance 1.00e-04)
Best objective -1.645045978473e+00, best bound -1.645045978473e+00, gap 0.0000%

User-callback calls 78, time in user-callback 0.00 sec
Gurobi Optimizer version 9.1.2 build v9.1.2rc0 (linux64)
Thread count: 36 physical cores, 72 logical processors, using up to 32 threads
Optimize a model with 60 rows, 312 columns and 16100 nonzeros
Model fingerprint: 0x262cea67
Model has 262 quadratic constraints
Coefficient statistics:
  Matrix range     [4e-07, 7e+00]
  QMatrix range    [1e+00, 1e+00]
  QLMatrix range   [1e+00, 1e+00]
  Objective range  [6e-03, 2e+00]
  Bounds range     [1e+00, 1e+00]
  RHS range        [1e+00, 1e+00]
Presolve removed 16 rows and 0 columns

Continuous model is non-convex -- solving as a MIP.

Presolve removed 16 rows and 0 columns
Presolve time: 0.01s
Presolved: 1080 rows, 312 columns, 13136 nonzeros
Presolved model has 262 bilinear constraint(s)
Variable types: 312 continuous, 0 integer (0 binary)

Root relaxation: objective -2.991595e+01, 334 iterations, 0.02 seconds

    Nodes    |    Current Node    |     Objective Bounds      |     Work
 Expl Unexpl |  Obj  Depth IntInf | Incumbent    BestBd   Gap | It/Node Time

     0     0  -29.91595    0   97          -  -29.91595      -     -    0s
     0     0  -28.56848    0   83          -  -28.56848      -     -    0s
     0     0  -28.52408    0   78          -  -28.52408      -     -    0s
     0     0  -28.47132    0   78          -  -28.47132      -     -    0s
     0     0  -28.47044    0  135          -  -28.47044      -     -    0s
     0     0  -28.46796    0   74          -  -28.46796      -     -    0s
     0     0  -28.46784    0   74          -  -28.46784      -     -    0s
     0     0  -28.46608    0   74          -  -28.46608      -     -    0s
     0     0  -28.46605    0   74          -  -28.46605      -     -    0s
     0     0  -28.46525    0   74          -  -28.46525      -     -    0s
     0     0  -28.46505    0   74          -  -28.46505      -     -    0s
     0     0  -28.46428    0   74          -  -28.46428      -     -    0s
     0     0  -28.46428    0   74          -  -28.46428      -     -    0s
     0     0  -28.46289    0   74          -  -28.46289      -     -    0s
H    0     0                     -25.4554204  -28.46289  11.8%     -    0s
     0     2  -28.46289    0   74  -25.45542  -28.46289  11.8%     -    0s
* 2011  1687              56     -25.4554613  -27.21131  6.90%  50.6    1s
* 2156  1833              55     -25.4554618  -27.21131  6.90%  48.9    1s
* 2192  1833              89     -25.7621456  -27.21131  5.63%  48.4    1s
* 2286  1779              70     -26.4340301  -27.03060  2.26%  47.7    1s
* 5353  1842              49     -26.4340596  -27.00846  2.17%  46.2    3s
* 5354  1842              48     -26.4341145  -27.00846  2.17%  46.2    3s
* 5360  1842              49     -26.4341282  -27.00846  2.17%  46.2    3s
* 5361  1842              49     -26.4341287  -27.00846  2.17%  46.1    3s
* 5625  1830              76     -26.4374515  -26.96033  1.98%  45.5    3s
* 5634  1830              76     -26.4374585  -26.96033  1.98%  45.4    3s
* 5728  1830              54     -26.4429667  -26.96033  1.96%  44.8    3s
* 5729  1830              54     -26.4429701  -26.96033  1.96%  44.8    3s
  8114   972     cutoff   31       -26.44297  -26.96033  1.96%  46.8    5s
* 9263   950              61     -26.4435246  -26.96033  1.95%  45.5    5s
* 9264   948              61     -26.4435506  -26.96033  1.95%  45.5    5s
* 9728  1081              83     -26.4440522  -26.96033  1.95%  44.7    5s
* 9732  1081              85     -26.4440700  -26.96033  1.95%  44.6    5s
*10072  1251              66     -26.4452961  -26.96033  1.95%  44.2    5s
*10497  1384              74     -26.4523035  -26.96033  1.92%  43.7    5s
*11285  1574              73     -26.4525029  -26.87926  1.61%  42.9    5s
*11286  1574              73     -26.4525111  -26.87926  1.61%  42.8    5s
*11562  1679              71     -26.4549649  -26.87926  1.60%  42.7    5s
*11563  1679              71     -26.4549658  -26.87926  1.60%  42.7    5s
*11658  1679              68     -26.4615815  -26.87926  1.58%  42.6    5s
*12015  1723              76     -26.4677677  -26.87926  1.55%  42.3    5s
*12016  1723              76     -26.4677693  -26.87926  1.55%  42.3    5s
*15973  1726              68     -26.4691314  -26.87926  1.55%  39.5    6s
*15974  1726              68     -26.4691314  -26.87926  1.55%  39.5    6s
*16210  1789              76     -26.4693182  -26.87926  1.55%  39.4    6s
*16595  1789              69     -26.4710575  -26.87926  1.54%  39.1    6s
*16897  1760              69     -26.4728898  -26.63463  0.61%  39.0    7s
*18622  1841              63     -26.4730320  -26.62120  0.56%  38.0    7s
*18623  1841              63     -26.4732089  -26.62120  0.56%  38.0    7s
*19529  1849              75     -26.4744561  -26.62120  0.55%  37.5    7s
*21655  1736              75     -26.4752367  -26.56337  0.33%  36.4    8s
*24005  1742              70     -26.4752634  -26.53672  0.23%  35.7    8s
*28812  1608              65     -26.4752659  -26.50755  0.12%  34.0    9s
*28813  1608              65     -26.4753228  -26.50755  0.12%  33.9    9s
*30083  1569              75     -26.4758726  -26.50755  0.12%  33.3    9s
 31829  1499     cutoff   42       -26.47587  -26.49530  0.07%  32.6   10s
*35166  1400              67     -26.4758765  -26.48612  0.04%  31.1   10s
*35800  1400              67     -26.4758840  -26.48561  0.04%  30.8   10s
*35801  1400              67     -26.4758918  -26.48561  0.04%  30.8   10s
*35804  1400              67     -26.4758921  -26.48561  0.04%  30.8   10s
*36436  1433              67     -26.4758940  -26.48409  0.03%  30.5   10s
*36437  1433              67     -26.4759135  -26.48409  0.03%  30.5   10s
*38114  1401              68     -26.4759203  -26.48245  0.02%  29.8   11s
*38593  1401              67     -26.4759402  -26.48222  0.02%  29.6   11s
*38608  1401              72     -26.4759406  -26.48222  0.02%  29.6   11s
*38610  1401              70     -26.4759416  -26.48222  0.02%  29.6   11s
*38612  1401              70     -26.4759417  -26.48222  0.02%  29.6   11s
*38613  1401              70     -26.4759417  -26.48222  0.02%  29.6   11s
*38614  1401              68     -26.4759418  -26.48222  0.02%  29.6   11s
*39557  1407              63     -26.4759455  -26.48152  0.02%  29.1   11s
*39755  1407              73     -26.4759804  -26.48136  0.02%  29.0   11s
*39757  1407              74     -26.4759817  -26.48136  0.02%  29.0   11s
*39768  1407              73     -26.4760061  -26.48136  0.02%  29.0   11s
*39770  1407              72     -26.4760073  -26.48136  0.02%  29.0   11s
*40827  1407              73     -26.4760243  -26.48110  0.02%  28.6   11s
*41305  1282              71     -26.4760272  -26.48042  0.02%  28.4   11s
*41310  1282              71     -26.4760284  -26.48042  0.02%  28.4   11s
*41311  1282              71     -26.4760287  -26.48042  0.02%  28.4   11s
*43159  1274              75     -26.4760421  -26.47922  0.01%  27.7   11s

Explored 45453 nodes (1218541 simplex iterations) in 12.01 seconds
Thread count was 32 (of 72 available processors)

Solution count 10: -26.476 -26.476 -26.476 ... -26.4759

Optimal solution found (tolerance 1.00e-04)
Best objective -2.647604028630e+01, best bound -2.647807786892e+01, gap 0.0077%

User-callback calls 92144, time in user-callback 0.02 sec



objective value: -26.47604028630191
objective bound: -26.478077868918998
x_opt: [0.979440163622477, 0.952263139518207, 0.0, 0.47560002243295446, 0.0, 0.0, 1.0, 0.0, 0.0, 0.0, 1.0, 0.0, 1.0, 1.0, 0.5247148739700729, 1.0, 0.0, 1.0, 0.0, 0.0, 0.3482163669605384, 0.23647837214780304, 0.0, 0.5749185731568734, 0.0, 0.8017497465355514, 0.0, 1.0, 0.0, 0.0, 1.0, 1.0, 0.0, 0.49403036729737915, 1.0, 0.9600060871639633, 0.0, 1.0, 0.0, 1.0, 1.0, 0.0, 1.0, 0.07555465916264033, 5.3373905226014123e-20, 2.0081772296949136e-5, 0.5192726126030641, 0.44353350674174924, 0.3589047394740391, 1.7039088831723694e-19]
GUROBI solution time: 12.008547067642212




